TIP.Original.Linear/tip2015_weird_nat_add3_assoc3.smt2
(set-logic HORN)
(declare-datatypes ((Nat_267 0)) (((zero_44 ) (succ_43 (p_126 Nat_267)))))
(declare-fun diseqNat_267 (Nat_267 Nat_267) Bool)
(declare-fun p_127 (Nat_267 Nat_267) Bool)
(declare-fun iszero_43 (Nat_267) Bool)
(declare-fun issucc_43 (Nat_267) Bool)
(assert (forall ((x_22223 Nat_267))
	(p_127 x_22223 (succ_43 x_22223))))
(assert (iszero_43 zero_44))
(assert (forall ((x_22225 Nat_267))
	(issucc_43 (succ_43 x_22225))))
(assert (forall ((x_22226 Nat_267))
	(diseqNat_267 zero_44 (succ_43 x_22226))))
(assert (forall ((x_22227 Nat_267))
	(diseqNat_267 (succ_43 x_22227) zero_44)))
(assert (forall ((x_22228 Nat_267) (x_22229 Nat_267))
	(=> (diseqNat_267 x_22228 x_22229)
	    (diseqNat_267 (succ_43 x_22228) (succ_43 x_22229)))))
(declare-fun plus_41 (Nat_267 Nat_267 Nat_267) Bool)
(assert (forall ((x_22200 Nat_267) (z_844 Nat_267) (y_844 Nat_267))
	(=> (plus_41 x_22200 z_844 y_844)
	    (plus_41 (succ_43 x_22200) (succ_43 z_844) y_844))))
(assert (forall ((x_22201 Nat_267))
	(plus_41 x_22201 zero_44 x_22201)))
(declare-fun add_160 (Nat_267 Nat_267 Nat_267 Nat_267) Bool)
(assert (forall ((x_22202 Nat_267) (x_22203 Nat_267) (x_22188 Nat_267) (y_845 Nat_267) (z_845 Nat_267))
	(=>	(and (add_160 x_22203 x_22188 y_845 z_845)
			(plus_41 x_22202 (succ_43 zero_44) x_22203))
		(add_160 x_22202 (succ_43 x_22188) y_845 z_845))))
(assert (forall ((x_22205 Nat_267) (x_22206 Nat_267) (x_22189 Nat_267) (z_845 Nat_267))
	(=>	(and (add_160 x_22206 zero_44 x_22189 z_845)
			(plus_41 x_22205 (succ_43 zero_44) x_22206))
		(add_160 x_22205 zero_44 (succ_43 x_22189) z_845))))
(assert (forall ((x_22208 Nat_267))
	(add_160 x_22208 zero_44 zero_44 x_22208)))
(assert (forall ((x_22209 Nat_267) (x_22210 Nat_267) (x_22211 Nat_267) (x_22212 Nat_267) (x_22190 Nat_267) (x_22191 Nat_267) (x_22192 Nat_267) (x_22193 Nat_267) (x_22194 Nat_267))
	(=>	(and true
			(diseqNat_267 x_22210 x_22212)
			(add_160 x_22209 x_22191 x_22192 x_22193)
			(add_160 x_22210 x_22190 x_22209 x_22194)
			(add_160 x_22211 x_22192 x_22193 x_22194)
			(add_160 x_22212 x_22190 x_22191 x_22211))
		false)))
(assert (forall ((x_22213 Nat_267) (x_22214 Nat_267) (x_22215 Nat_267) (x_22216 Nat_267) (x_22195 Nat_267) (y_846 Nat_267) (z_846 Nat_267))
	(=>	(and true
			(diseqNat_267 x_22214 x_22216)
			(plus_41 x_22213 y_846 z_846)
			(plus_41 x_22214 x_22195 x_22213)
			(plus_41 x_22215 x_22195 y_846)
			(plus_41 x_22216 x_22215 z_846))
		false)))
(assert (forall ((x_22217 Nat_267) (x_22218 Nat_267) (x_22196 Nat_267) (y_847 Nat_267))
	(=>	(and true
			(diseqNat_267 x_22217 x_22218)
			(plus_41 x_22217 x_22196 y_847)
			(plus_41 x_22218 y_847 x_22196))
		false)))
(assert (forall ((x_22219 Nat_267) (x_22197 Nat_267))
	(=>	(and true
			(diseqNat_267 x_22219 x_22197)
			(plus_41 x_22219 x_22197 zero_44))
		false)))
(assert (forall ((x_22220 Nat_267) (x_22198 Nat_267))
	(=>	(and true
			(diseqNat_267 x_22220 x_22198)
			(plus_41 x_22220 zero_44 x_22198))
		false)))
(check-sat)
